0 0 0 0
0 1 0 0
0 2 0 0
0 3 2 0
0 4 0 1
0 5 0 2
0 6 2 2
0 7 1 4
0 8 0 4
0 9 2 5
0 10 2 2
0 11 2 10
0 12 2 5
0 13 0 10
0 14 0 14
0 15 0 15
0 16 1 15
0 17 0 15
0 18 0 6
0 19 0 18
0 20 2 16
0 21 2 16
0 22 2 16
0 23 1 24
0 24 0 31
0 25 2 18
0 26 0 24
0 27 2 19
0 28 0 29
0 29 0 32
0 30 1 26
0 31 0 33
